65
Lattice="10.86 0.0 0.0 0.0 10.86 0.0 0.0 0.0 10.86" Properties=species:S:1:pos:R:3:momenta:R:3:forces:R:3:energies:R:1 energy=-340.0776715421292 stress="-0.014594546297568359 -0.0025032699848555463 -0.0032210677192311865 -0.0025032699848555463 -0.01358536866224703 -0.003909311650328557 -0.0032210677192311865 -0.003909311650328557 -0.013782222661461532" free_energy=-340.0776715421292 pbc="T T T"
Si      -0.05594316       0.03834135      -0.02066178       0.12877880       0.50471150       0.39093401      -0.17051924      -0.27809264       0.00534187      -5.31935823
Si       1.29542398       1.35466751       1.27188368       0.43459451       0.09400492      -0.57225577       0.45896249       0.48681477       0.42416748      -5.27848508
Si      -0.16167759       2.77529376       2.57803712      -0.86367100       0.64754254      -0.03018630       0.14261835      -0.38654629      -0.04193656      -5.30851886
Si       1.20988338       4.08025119       3.91463989      -0.09758779       0.12909588       0.02168421       0.31444034      -0.23649035       0.15980682      -5.33591826
Si       2.71521669       0.01722932       2.72244693       0.08650735      -0.42155876      -1.21122765      -0.41069081       0.07772551      -0.07346621      -5.31701256
Si       4.03349913       1.30003062       4.16236135       0.86984795       0.46397699      -0.92951413      -0.40610437       0.29775054      -0.40180016      -5.31099396
Si       2.78705440       2.81189838       0.00090161       0.22340125       0.31017427       1.08173388      -0.88221302      -0.37399770      -0.22815842      -5.28945653
Si       4.00919616       4.17001548       1.35841752      -0.71988869      -1.25087037       0.17272154       0.31224497       0.13697483       0.09635302      -5.30869837
Si       0.11510975       0.06292689       5.34809506      -0.44733339       0.14659931       0.02263405       0.12261777       0.01819184       0.15477787      -5.34838742
Si       1.32386859       1.41490683       6.82508875       0.47256436       0.27507308      -0.42777912       0.06442073      -0.04371847       0.12046075      -5.32961547
Si      -0.00767369       2.78706302       8.23374435       0.72426693       0.71078560      -0.50459685      -0.60847417      -0.51165901      -0.39021951      -5.30697029
Si       1.22086824       4.13129500       9.55942470      -0.92339943       0.02776566      -0.19664804       0.98519184       0.32189011       0.11674944      -5.28850337
Si       2.69952508       0.03314517       8.18031176       0.29480711      -0.42690572      -0.42432276       0.07755427       0.07362634      -0.09665220      -5.32876887
Si       4.09413027       1.41006626       9.51572034       0.62352519      -0.08238581       0.62238227      -0.26397107      -0.21546938       0.04980931      -5.34112173
Si       2.59622448       2.73688261       5.36511909      -0.87108558       0.49325079       0.29282793      -0.29570961      -0.26629412      -0.31257786      -5.25205355
Si       3.91521878       3.96655909       6.75560774      -1.46694315       0.00655197      -0.24311310       0.31325555       0.06900920       0.34902027      -5.12547328
Si      -0.04587644       5.50862244       0.09479742      -0.17765216      -0.16052173       0.45988051      -0.04602806      -0.22250081      -0.10894410      -5.32060536
Si       1.28391611       6.93096774       1.34127285      -0.59505688       0.34630245       0.71770603      -0.23390717      -0.34316165       0.36079754      -5.34093236
Si      -0.02761437       8.23822599       2.75303933       0.21436896       0.77269841       0.32409204      -0.10828249       0.06767125      -0.10921806      -5.33139725
Si       1.42779859       9.44408154       4.10590980       0.06062468      -0.37595315      -0.56016281      -0.00291074       0.37593043      -0.20598222      -5.32147868
Si       2.57594524       5.50843278       2.66217088       0.75267081       0.33304487      -0.00119235      -0.18479956      -0.35166367      -0.35863174      -5.24523507
Si       3.97160944       6.66280776       4.02767663       0.18385872       0.00324725      -0.83540028       0.28028300       0.62038601       0.12018224      -5.17784763
Si       2.66494267       8.12557465       0.01380188      -0.14225198      -0.65340252       0.06778520       0.22768116       0.67405973      -0.30715185      -5.32750188
Si       4.01302999       9.52691635       1.37485604      -0.11227038       0.96332937      -0.12536805       0.33696497      -0.06538320      -0.24785427      -5.31901727
Si      -0.09395572       5.38903634       5.27756124       0.40843087      -1.01245094       0.50861562       0.02545358       0.34003858       0.29445225      -5.32758173
Si       1.26642903       6.72960498       6.67888780       0.59249965      -0.00179985       1.91103766       0.19128889      -0.00938238      -0.05199572      -5.31852731
Si       0.09156244       8.14876116       8.08368142       0.99044996       0.92410176       0.51202173      -0.32661856      -0.01951462       0.25661074      -5.30769674
Si       1.32967702       9.51375616       9.46739479      -0.89972970       0.50517281      -0.34662169       0.15804449       0.13500869       0.38414030      -5.33434400
Si       2.63007972       5.45573040       8.06906506       0.19369002       0.06967932      -0.38258160      -0.01328177      -0.26432934       0.37003329      -5.33423298
Si       3.98900673       6.76512411       9.53467453       0.88236956      -0.88589838      -0.04500293      -0.07394101       0.11704379      -0.50109509      -5.35860296
Si       2.73442228       8.08411157       5.44880002      -0.83256978      -0.59157160      -0.24981305       0.11424772      -0.14484215       0.17554943      -5.34878076
Si       4.05270568       9.44138983       6.89164093      -0.88740680      -0.93256648      -0.06981633      -0.19448369       0.23949149      -0.45014960      -5.36807531
Si       5.43544346       0.09607026       0.03684433      -0.57607764      -0.00905937      -0.13903668      -0.10793140      -0.27056235       0.14247449      -5.32068380
Si       6.69736033       1.52287422       1.41468723      -0.83825774       1.26741179       0.28324076      -0.23465028      -0.74532087       0.44332733      -5.29799013
Si       5.28223554       2.77742973       2.82296634       0.04853490       0.46862900      -1.38670315      -0.12096466       0.00059680      -0.30005147      -5.29199182
Si       6.87863211       4.00399679       4.01594001      -1.39425531       0.19109614      -0.93290666       0.19775817       0.07363960      -0.14912988      -5.03776073
Si       8.03039196       0.10299417       2.81619817       0.34910415      -0.80954771       0.92338629      -0.24434558      -0.05419151      -0.11673978      -5.31009754
Si       9.53736786       1.33722374       4.06972478       0.24408249      -0.49724608      -0.04211501      -0.29092542       0.53977136       0.02659332      -5.31594100
Si       7.99292239       2.71611981       0.00994153      -0.89069095       0.59371058      -0.08464047      -0.10930302       0.55538867      -0.21695347      -5.31936252
Si       9.29445146       4.13901941       1.25160842       0.41641560       0.29046193       0.20897711       0.63292528      -0.01644862       0.23009257      -5.30195414
Si       5.33306161      -0.07809697       5.42027495       1.39380021       0.51711886       1.27192988       0.42121076      -0.14674556       0.57032785      -5.33378483
Si       6.76612758       1.28362755       6.76480425      -0.30238219       1.14326123       0.15152600      -0.00133264      -0.06750365       0.03791547      -5.33350131
Si       5.42533588       2.65123093       8.11396984       1.08779970       0.20685068      -0.40421583      -0.10895211       0.34681209      -0.32402357      -5.35075928
Si       6.67446097       4.07324359       9.48254187      -0.46793370       0.82330146       1.05490886       0.49079973       0.10147634      -0.28289171      -5.34092935
Si       8.23384970       0.02387666       8.13396739      -0.50260641       0.30652039       0.62814548      -0.07994243       0.09629013      -0.13825612      -5.32171340
Si       9.37129784       1.43402538       9.61573139      -0.98228478       0.50473956       0.63237629       0.72882828      -0.19981195      -0.71927644      -5.30276009
Si       8.13063642       2.68531247       5.49094344      -1.63325300       0.33359883       0.24737025       0.30861152       0.00855375      -0.16558099      -5.35307787
Si       9.53195687       4.12656430       6.77810054       0.54169399       0.18563075       0.47310623      -0.26651742      -0.23654179       0.23292894      -5.35247804
Si       5.41196737       5.48502931      -0.07594993       0.80268365      -0.24485803      -0.43877420      -0.29185908      -0.32000157       0.38866352      -5.33721157
Si       6.71560151       6.83618191       1.25694804       0.34805908      -1.34006280       0.03002925       0.07772462       0.40018949       0.37534300      -5.32206685
Si       5.34181467       8.11845903       2.73784357       0.28368822       0.31800112      -0.52064482       0.09370727      -0.14415137      -0.17780420      -5.35400583
Si       6.70309311       9.45431756       4.08970082      -0.45983953       0.74872471      -0.02710586       0.48681002      -0.14760264       0.28266964      -5.31727811
Si       8.07597990       5.52148696       2.61310529       0.78085331      -1.06316737      -0.80771942      -0.28001640      -0.06711922       0.39465334      -5.36193582
Si       9.44643147       6.83130479       3.98918554      -0.90830300       0.91616369       0.50927244       0.15174904      -0.25063558       0.03761272      -5.36214083
Si       8.17838305       8.31852705       0.12690728      -0.58781053       0.34552586      -0.25870810      -0.19504843      -0.33059039      -0.15836342      -5.31622722
Si       9.42764879       9.66728037       1.50526746      -0.30140019      -0.98509302       0.27827841       0.43335168      -0.02223664      -0.20099640      -5.31498606
Si       4.71266730       4.55450915       4.61662788       0.29390533      -0.27374070      -0.09064311      -0.17756019       0.03500251       0.16349655      -4.86630965
Si       7.60853363       7.64130948       7.74146072      -0.16902016      -0.46990327       0.81361959       0.08319488      -0.13089816      -0.26567933      -4.82119979
Si       5.37501980       8.18558650       8.26842382      -0.10691629       0.60278688      -0.48168837       0.38416686      -0.00278781       0.31518444      -5.06634858
Si       6.87440091       9.61039001       9.54693739       0.50920696       0.09066618       0.83470098      -0.30620534      -0.13146005      -0.04351580      -5.24588686
Si       8.33132210       5.43171389       8.35196730      -0.19840961      -0.94142370       0.37154472      -0.07871695       0.10947686       0.20206593      -5.02440478
Si       9.58106088       6.96176594       9.66196664      -0.07537494       0.06090766      -0.44805442      -0.16628706       0.11954565      -0.52031267      -5.24903928
Si       8.33890059       8.17148608       5.47771575      -0.42742462       0.12260171      -0.62529047      -0.73855220       0.61863563       0.21732510      -5.06825703
Si       9.71154411       9.61114860       6.74939970      -0.39374770      -0.63469859      -0.45571566      -0.49440466      -0.17818977       0.20050365      -5.24245074
Na       6.35058421       5.70418525       6.35579128       0.11780825       0.18319381       0.09432109      -0.10065760       0.13885327      -0.03402163      -2.05194356
