64
Lattice="10.86 0.0 0.0 0.0 10.86 0.0 0.0 0.0 10.86" Properties=species:S:1:pos:R:3:momenta:R:3:forces:R:3:energies:R:1 energy=-340.804575822244 stress="-0.0075247154963422325 -9.235435948573898e-05 -4.1468323938594465e-05 -9.235435948573898e-05 -0.00758340799710165 0.00020905510384657648 -4.1468323938594465e-05 0.00020905510384657648 -0.007514043179118469" free_energy=-340.804575822244 pbc="T T T"
Si      -0.15712121       0.06679970      -0.16609749      -0.20909786      -0.27298392      -0.24856885       0.14440979      -0.10201049       0.41041623      -5.31723534
Si       1.24370999       1.28850789       1.26873701       0.21162829       1.10245470       1.22435569      -0.26009444       0.64448263      -0.29468031      -5.33314145
Si      -0.03315814       2.64808439       2.71110933       0.31447129       1.80868623       0.88475466      -0.18112799       0.43777124      -0.34758664      -5.29878002
Si       1.35335704       4.06825000       4.01488100      -0.13634881      -0.18447295      -0.10842963       0.05416980       0.24633463      -0.07408624      -5.30220305
Si       2.56693603       0.07399172       2.63873747      -0.66808219      -0.65027226      -0.95962447       0.58671504      -0.47244169       0.51860997      -5.32199528
Si       4.03718846       1.38262342       3.97403527      -0.00964810      -0.85048979       0.62538434       0.13574031      -0.29548405       0.05841413      -5.33846214
Si       2.58002039       2.75003814      -0.05219347       0.83933749      -0.18898607      -1.39940118       0.31310269       0.15701299       0.21993839      -5.31087107
Si       4.04346898       4.09212147       1.37277534       0.52272037       0.52652638      -0.28012790      -0.13495254      -0.09060909      -0.20799522      -5.30965709
Si       0.03094778      -0.08151414       5.49579525       0.38790464      -1.42104648       0.76944135      -0.23774751       0.69010350      -0.39625200      -5.30116098
Si       1.39996065       1.40534478       6.70588745      -0.11880423      -0.26673926      -1.04531794       0.04262123      -0.27440196       0.26193433      -5.33148502
Si       0.00576115       2.81056517       7.97157661       0.50435117       0.32967930       1.18608260       0.07593607      -0.29191138       0.09616153      -5.34729763
Si       1.38081521       4.12250213       9.28682641      -1.06680207      -0.24211362       0.52377853       0.02030436       0.33636461       0.59870807      -5.29974635
Si       2.74214361       0.06201155       8.18178136      -0.61558213       0.17410929       0.33406191       0.01012458      -0.12659831      -0.14342278      -5.29936185
Si       4.06977658       1.41642750       9.60332982      -0.62440247      -0.04421562      -0.41654954       0.15725505      -0.18696524      -0.33153638      -5.30178382
Si       2.74953089       2.72358586       5.34025945      -0.14219857      -0.40776590      -1.39375337      -0.09855584       0.37053014       0.14846108      -5.34199755
Si       4.03723205       4.21086697       6.69453978       1.58641967       0.51877268      -0.39618718       0.19686996      -0.63324336       0.14090286      -5.31712913
Si       0.03757830       5.46085172      -0.04790957      -0.16213983       0.54162971       0.41462320       0.22545490       0.02900420      -0.32290955      -5.32880508
Si       1.37101203       6.82751568       1.36893351      -0.40257708       0.19960622      -1.24286690      -0.00637291      -0.10789712      -0.30947470      -5.34972349
Si       0.02233062       8.19361614       2.64445980       0.21018587       1.37071952      -0.53982092      -0.26235836      -0.09629114       0.46774332      -5.32966872
Si       1.35339223       9.49432678       4.08937546      -0.03768376       1.10876351       0.52314368       0.24954831      -0.01738556      -0.12312366      -5.32158348
Si       2.75797685       5.55027724       2.73147993       0.56202160      -1.21015877       0.08918602      -0.10661575      -0.50948770       0.03249190      -5.32649193
Si       4.14949162       6.86992734       4.07701189      -0.49739576      -0.40940390      -0.24907936       0.08435008      -0.25169925      -0.06225282      -5.34023997
Si       2.66947735       8.22809257       0.01328221       0.46478666       0.62455831      -0.05775375       0.05233303      -0.03078670      -0.07824732      -5.33483889
Si       4.02625084       9.54690862       1.40972228       1.96720443      -0.44775821       0.12873760       0.07705201       0.07601305      -0.23706451      -5.31985428
Si       0.06275750       5.53921166       5.38837601      -1.45906618       0.66852240       0.28764102       0.17959662      -0.49683397      -0.18055105      -5.33671780
Si       1.46017062       6.84069035       6.70000455      -0.31594037      -0.98914307      -0.00130703      -0.45635742       0.52521030       0.17640370      -5.32165612
Si       0.04106781       8.20296149       8.11193954      -0.43147916       0.91523476      -0.33526870      -0.14794877      -0.54104487      -0.04708368      -5.31498673
Si       1.27163177       9.55837868       9.48759435      -0.57627089      -1.48297621      -0.05187270       0.56147894       0.14316392      -0.01727585      -5.33669294
Si       2.79033969       5.60798340       8.06044409      -0.11843927       0.94353771      -0.26736817      -0.09017119      -0.60071969       0.38016355      -5.32751101
Si       4.06459433       6.83942753       9.56300390       0.05698871       0.91001755      -0.21125003       0.17021998       0.30750582      -0.13134885      -5.33759090
Si       2.85923617       8.20248625       5.44645105      -0.11940242      -0.23676383       0.59433514      -0.36121485       0.21500592      -0.17243061      -5.32628728
Si       4.19386257       9.49140319       6.85375517      -0.53848397      -0.01924895      -0.42863620      -0.36300380       0.23505312       0.27235389      -5.32091468
Si       5.50328621      -0.02756431       0.06702859      -0.82483913      -0.39219873      -0.49974738      -0.64685870       0.60448720       0.12418395      -5.30764754
Si       6.86386957       1.41543785       1.33766424      -0.14064551       0.03021516       1.04770107      -0.21107193      -0.19866199      -0.10763779      -5.33152700
Si       5.46908375       2.70656082       2.67447471      -0.42774334       1.07978741      -0.14049274      -0.26797697       0.18930908      -0.14775649      -5.34276652
Si       6.85078812       4.09212384       3.92632770      -0.31107104       0.88734299      -1.03397539      -0.27810903       0.05383151       0.69787378      -5.30849652
Si       8.07465697       0.00960627       2.75200997       0.36103200      -0.95154172      -1.06669506       0.58821150       0.10716236      -0.14276353      -5.32114267
Si       9.44292643       1.39113521       4.13920970      -0.32132208       0.34948371      -0.83867872       0.58351399      -0.78930449      -0.34470242      -5.29287647
Si       8.09175496       2.74549539      -0.15032388      -0.04991611      -1.95149953      -0.01316718       0.13143127       0.21490191       0.15615040      -5.34072028
Si       9.51326220       4.08906412       1.18521237      -0.07344122       0.75631214      -0.92854054      -0.03554142      -0.28419086       0.66449022      -5.28426196
Si       5.37216750      -0.00999317       5.40105462       0.63675316       0.55600130       1.25057756       0.17045780       0.08512014      -0.31179222      -5.32234657
Si       6.71167782       1.37815836       6.70986752      -0.15162466       0.63569949       0.50820096       0.10529407       0.11348625       0.14211283      -5.34836136
Si       5.36805956       2.74636066       8.07738018       0.65912725       0.31784198       0.26345378      -0.20662341       0.09607307       0.04083099      -5.31515941
Si       6.71266350       4.13591529       9.39895433       1.02658845      -0.13877222      -0.18516070       0.20408575      -0.12148891       0.06709927      -5.33407381
Si       8.07072284       0.05868211       8.11744910       0.17703530       0.53510707      -0.05713642       0.22126723       0.03324894      -0.38435068      -5.33438956
Si       9.46350549       1.47141779       9.31462204      -0.41020920      -0.30620419      -0.31549987       0.01470061       0.03965290       0.12109147      -5.33570711
Si       8.13183155       2.73083356       5.38938423       0.81839608      -0.21237801      -0.46281930      -0.31631039       0.47452937       0.24346514      -5.32967039
Si       9.54327124       4.16424877       6.65933908       0.60304496       0.84218950       0.83171855      -0.24628897      -0.12545131      -0.00165975      -5.33202621
Si       5.40793234       5.43720064      -0.00986109      -1.37045244       0.58095477      -0.07071773      -0.05496602      -0.07587527       0.08644863      -5.34651310
Si       6.78179849       6.78071184       1.33763649       0.21903851       0.61257607      -0.63191007      -0.05410404      -0.03574629       0.01222379      -5.34579898
Si       5.45544652       8.17525247       2.65825218       0.42821059      -0.51027569      -0.37237411      -0.04446390       0.02511805       0.17801686      -5.33972755
Si       6.79722244       9.47172538       4.07455417       0.10363355       0.53401035      -1.03411505      -0.20015829       0.09958390       0.15708267      -5.33967161
Si       8.20288683       5.46601602       2.66228707       0.16529723       0.23030485       1.65608305       0.10112232      -0.17171353      -0.37294770      -5.34219083
Si       9.52261603       6.77277355       4.05941976       0.06682996       0.59024598       0.00399379       0.06329303       0.58176204      -0.29987559      -5.32628317
Si       8.05461689       8.16783903      -0.00922413      -0.50316874      -0.09271145       0.09652540       0.80471820      -0.04541382       0.17970919      -5.30677656
Si       9.50205192       9.55138369       1.33887066       0.40778059      -0.90455735      -0.15700351      -0.41845725       0.00850161      -0.12692919      -5.31184684
Si       5.48716426       5.46831609       5.42026653      -0.75366637       0.64882887       0.38846959       0.33028584       0.02976598      -0.38388934      -5.31271366
Si       6.88474968       6.78695486       6.80806774      -0.45047563      -0.63637898      -0.62478152      -0.29365840       0.16380763      -0.01670101      -5.32791493
Si       5.55784720       8.16838483       8.24847111      -0.11704147       1.07527927      -0.52261358      -0.26057744      -0.19538855      -0.24478215      -5.31126781
Si       6.83938349       9.60622798       9.55473208      -0.58590596      -0.09063913       0.92285396      -0.14929105      -0.27858839      -0.26754700      -5.33064183
Si       8.22731084       5.42550244       8.11882640       0.33648659      -0.05838161      -0.93342195      -0.16630511       0.03524322       0.08395664      -5.33156451
Si       9.49692514       6.82869179       9.49901141       0.49228379      -0.20954783       0.06731270       0.15071925       0.13117005      -0.04004545      -5.32245375
Si       8.19774982       8.16278913       5.43986527      -0.41361993       0.96513467       0.37489130      -0.08678036      -0.13258225      -0.13241541      -5.34422352
Si       9.49339112       9.51632300       6.82258138       1.55429800      -0.93792685      -1.23491448      -0.16231955       0.07990596       0.06567911      -5.33794274
