64
Lattice="10.86 0.0 0.0 0.0 10.86 0.0 0.0 0.0 10.86" Properties=species:S:1:pos:R:3:momenta:R:3:forces:R:3:energies:R:1 energy=-340.6035250142892 stress="-0.007606205600296513 0.0015758335729841133 -0.0010436401758313566 0.0015758335729841133 -0.0075247632625101155 -0.0003758025341040812 -0.0010436401758313566 -0.0003758025341040812 -0.007586890493089904" free_energy=-340.6035250142892 pbc="T T T"
Si      -0.01572562      -0.07126306       0.05878473       1.00624929      -0.46425469      -0.22342081       0.05698211       0.38672795      -0.09364606      -5.33255638
Si       1.38722419       1.37645566       1.34609888      -0.03504336      -0.66451821       0.57481065      -0.18170175       0.07127757      -0.09776592      -5.32966422
Si       0.10002624       2.76232380       2.79405876       0.23387254       0.17010529       0.03548518      -0.26823759      -0.14795291      -0.28461571      -5.32255007
Si       1.43264044       4.11792519       4.14628943      -0.03168272      -1.03389660      -0.70418706      -0.12127936       0.38574967      -0.29828806      -5.31046505
Si       2.74197455       0.10253999       2.71280984      -0.19542492      -0.21162578       0.16446695      -0.05553165      -0.76574869      -0.36683269      -5.30973006
Si       4.08792915       1.40620975       4.01322296      -1.10060898      -0.75202188       1.00628248       0.42039343       0.46776559      -0.13200493      -5.32709359
Si       2.80493505       2.61313536      -0.08181415      -1.44165393       0.26933284      -0.84714602      -0.12810065       0.46614514       0.30069673      -5.32272668
Si       4.09188389       4.11789294       1.28736396      -0.58298926       0.14116767       0.19732711       0.29227450      -0.18048110      -0.14522391      -5.29722348
Si       0.06789839      -0.05376430       5.41548241      -0.88163285       0.35752416      -0.86910649      -0.14531128       0.51392234       0.25870259      -5.32392029
Si       1.45648184       1.34059359       6.73892038       0.33729093      -1.06991627       1.68263685      -0.42998546      -0.02940979      -0.03470266      -5.33164771
Si       0.07745592       2.53817495       8.23725129       0.38803243      -0.77961527      -1.98281966       0.11387734       0.35698251      -0.21660149      -5.32482664
Si       1.35224779       4.02342339       9.55484231      -1.20958188       0.68865293       0.55492076       0.34501754      -0.16112751      -0.32842440      -5.31783462
Si       2.77695891      -0.03081445       7.99809849      -1.07921015       0.60563520      -0.77683840       0.18822652      -0.25518506       0.67728381      -5.28785625
Si       4.16148344       1.33755785       9.38532144       0.38740478       0.42843078      -0.71717544      -0.15922324      -0.49221438       0.14681060      -5.31457283
Si       2.76573874       2.71526358       5.40486926       0.51116952      -0.38739336       0.18539458      -0.02712094       0.11078397       0.01738793      -5.34472779
Si       4.00541039       4.12424481       6.76927767      -0.33887382      -1.07206585      -0.28641078       0.22947643       0.13951810      -0.14651101      -5.33910721
Si      -0.02081106       5.36334340      -0.02595411       0.93591617       0.06209485       0.51557734      -0.30117064      -0.18872273       0.12898072      -5.34386504
Si       1.23431636       6.75226108       1.26764902       0.43471414      -0.91670955       0.56522445       0.48178906       0.54817236       0.22611567      -5.31327520
Si      -0.01301345       8.15098702       2.71711578       0.37216855       0.82827793       1.06577502       0.12283278      -0.19762348      -0.03360010      -5.33945899
Si       1.35088268       9.54578900       4.02034659      -0.59263837      -0.60684526       1.46699245       0.31399937      -0.15411833      -0.24699785      -5.33742302
Si       2.66949086       5.48412129       2.56988446      -0.92914685      -0.03253519      -0.56584948       0.19740626      -0.20742490       0.58312847      -5.31770893
Si       4.03178097       6.85300833       3.99823595      -0.20238513      -0.63713804       0.39126183      -0.10241871      -0.08117887      -0.05267925      -5.33713853
Si       2.70617200       8.14024627      -0.03426948       0.43636640       1.22950484      -0.62376834      -0.39855607      -0.32480054      -0.07677609      -5.34663609
Si       4.02802226       9.44066285       1.29176833       0.21373208       0.30846457      -1.12646676       0.19339566       0.59271513       0.50886328      -5.31504649
Si       0.05938268       5.45870750       5.57423205       0.52482721       1.77209101      -0.17298544       0.14759637      -0.18710591      -0.06897457      -5.32124570
Si       1.35507711       6.92692973       6.92637673      -0.17329888      -0.01097842       0.01271365       0.05070780      -0.19287762      -0.50789347      -5.30733185
Si      -0.11218673       8.20854674       8.20717237       0.68453910      -1.28522129      -0.67101084       0.43552228       0.15579441       0.01576689      -5.32854354
Si       1.36253349       9.53361846       9.51690633       0.34670910       0.99631194       0.71042144       0.08041272       0.02207815      -0.37751216      -5.30488982
Si       2.69209018       5.46530269       8.17718778       0.18457024       0.08187960       0.21706273      -0.34796449      -0.35857266      -0.08200067      -5.33878515
Si       4.03434108       6.78571632       9.45781553      -0.53494206      -1.08556994      -0.94685299       0.48787702       0.19371581       0.11243613      -5.33719423
Si       2.69797116       8.22739819       5.38931930      -0.68027049      -0.35592096      -0.53830190       0.06808807      -0.29142997       0.15993630      -5.31544568
Si       4.21466217       9.51584410       6.65446293      -0.41879847       0.45470659      -0.54837057      -0.80341348      -0.07667039       0.17099635      -5.32024812
Si       5.44749768      -0.04792425       0.02671934       0.01779545       0.41861031       0.51213517       0.11728577       0.01628600      -0.46688966      -5.29835489
Si       6.81398485       1.36509790       1.37246835       0.13753140      -0.35632750       0.26252961       0.00586702      -0.12641256      -0.15312390      -5.34086401
Si       5.57135683       2.82677711       2.70801364       0.64820231      -0.72852040       0.76413815      -0.68528835      -0.24154346      -0.11122077      -5.30274286
Si       6.88561448       4.10604041       4.11824256       0.72746981      -0.53774753      -0.33053111      -0.32850691       0.02127065       0.42628486      -5.31681525
Si       8.21619501      -0.01623986       2.66429613       0.45181046      -1.00931925      -0.26836196      -0.17862590       0.39312955       0.21167863      -5.33328177
Si       9.58569432       1.32101452       4.08205648      -0.30694573       0.54912718       0.26284125       0.07667913      -0.00868916      -0.30079892      -5.32766543
Si       8.14945142       2.70341300      -0.01692467      -0.35887778      -0.13074449      -1.23152262       0.25274361      -0.07205617       0.59162167      -5.34233841
Si       9.49303365       4.07682886       1.43467104       0.42405042       0.07695592       0.06103084       0.16505088      -0.25645374      -0.23233609      -5.31433231
Si       5.42398484       0.03312121       5.30711069      -0.59429758       0.52562312      -0.02517743       0.10301953      -0.03762706      -0.28845791      -5.32771374
Si       6.78433166       1.30223782       6.61569771       0.23053677      -1.93322019      -0.47715921       0.26049519       0.28842743       0.38064855      -5.33233558
Si       5.37702018       2.62690153       7.90302569      -0.05349069      -0.52679784      -0.79416162       0.49042765       0.46484458       0.65083753      -5.29044155
Si       6.83296365       3.89984979       9.43960516       0.14014894       0.35317717       1.07045347      -0.35620250       0.74090885      -0.78304778      -5.25433385
Si       8.03992139       0.03992116       8.13103408       0.54163124      -0.43795864      -0.35022653       0.27822811      -0.16725373       0.21944176      -5.30796933
Si       9.47713203       1.32641534       9.55952653       1.01679437       0.43294430      -1.04502797       0.02350564      -0.46560349      -0.11369172      -5.33421230
Si       8.26465433       2.66152306       5.42353043       0.74410061      -0.40861406       0.09831012      -0.25777540       0.21649107      -0.04356791      -5.34772948
Si       9.63347174       3.90245745       6.85592946       0.22786907       0.52065205       0.25896825      -0.06727491       0.48126315      -0.12414186      -5.31726999
Si       5.52148914       5.43178915      -0.15132974       0.21493034       0.41277182       0.24818779      -0.33986880      -0.29111173       0.28617570      -5.30409875
Si       6.76408712       6.73975492       1.35324128      -0.44827715       0.44608139      -0.29429906       0.20735128      -0.10605132       0.07679943      -5.33172363
Si       5.45588254       8.17422410       2.66843752      -0.33452185       0.83536500       0.31631708      -0.23717437      -0.15125363      -0.08786948      -5.34621838
Si       6.77673231       9.57381036       3.97537825       0.47801314      -0.27343946       0.23968698       0.24663911      -0.25880107       0.08361117      -5.34387855
Si       8.17869384       5.43468005       2.78400513       0.22525988      -0.91325038      -0.50778908       0.15817595       0.43560687      -0.14847554      -5.33288993
Si       9.61063546       6.78386476       4.16071960       0.39536724       0.79509845      -0.20960462      -0.52530602       0.18303465      -0.06214619      -5.31481344
Si       8.15520053       8.04109950       0.01092596       0.68689488       0.86868836       0.14657324      -0.20846612       0.18723725      -0.14452707      -5.34449744
Si       9.45955544       9.43217931       1.35590220      -0.57663223       0.50866510       0.26680419       0.20874057      -0.05771697      -0.11939852      -5.34731978
Si       5.35531147       5.51841680       5.40141866       0.55720220       0.02455659       0.29625644       0.38277651      -0.33933942      -0.02815470      -5.31539495
Si       6.81581200       6.76354505       6.78226954      -0.25561587       0.00489538       0.55017125       0.19334382       0.25015926      -0.38331932      -5.30028392
Si       5.39661327       8.13166649       8.04463580      -0.12626613       1.04489478      -0.60919658       0.22312527      -0.34508012       0.34306623      -5.34153025
Si       6.78608458       9.36274708       9.45023586       1.16648976       0.69347122      -0.52132985      -0.04475748       0.53149781       0.30266167      -5.29709595
Si       8.25328110       5.38457836       8.06902149      -0.14618440      -0.54908466      -0.17202541      -0.40373116      -0.33783185       0.33531893      -5.29649235
Si       9.52506501       6.74533477       9.51631603       0.33428935      -0.30827612      -0.23681965      -0.24432872      -0.13641966      -0.16546512      -5.34578387
Si       8.16438946       8.29280882       5.38802739       0.21730791       0.51503326       0.29913261      -0.00745935      -0.61772890       0.25071137      -5.25999934
Si       9.50851291       9.62457993       6.82395668       0.39203446       1.39179206       0.04766233      -0.26454901      -0.31188693      -0.11827947      -5.33236446
